344	241
738	271
1012	363
1172	504
1253	611
1313	475
1221	299
1064	181
963	175
697	108
564	103
367	97
275	156
271	299
396	527
626	687
796	651
865	526
705	444
495	379
517	183
614	325
839	375
1075	614
961	688
